tsp_instances/TSP20/instance16.tsp
NODE_COORD_SECTION
0 56 38
1 196 147
2 51 134
3 94 139
4 180 32
5 65 84
6 119 141
7 164 131
8 80 75
9 82 7
10 169 196
11 87 43
12 15 150
13 10 107
14 126 89
15 48 64
16 152 194
17 76 170
18 173 138
19 156 172
