tsp_instances/TSP20/instance16.opt.tour
TOUR_SECTION
1
10
5
15
8
19
2
11
17
20
7
4
18
3
13
14
16
6
9
12
-1